300,25
937,489
1023,517
681,226
677,435
664,430
628,433
639,448
452,721
464,833
450,860
580,719
810,805
792,748
606,880
561,776
366,177
518,86
427,152
533,258
178,485
281,610
597,322
681,-134
1045,670
857,648
745,605
